sat
(= row_4 0b101001)
(= col_1 0b101100)
(= row_2 0b001011)
(= row_3 0b010110)
(= col_2 0b001011)
(= row_5 0b010011)
(= col_3 0b010110)
(= row_1 0b101100)
(= col_0 0b110100)
(= row_0 0b110100)
(= col_4 0b101001)
(= col_5 0b010011)
